0000000000000000
0000000000000000
0000001111111000
0000010000011000
0000000000001000
0000000000001000
0000000000010000
0000000000010000
0000000000011000
0000000000100000
0000000000100000
0000000000100000
0000000001100000
0011111111110000
0000000000000000
0000000000000000
